
  12    4
  10   10   10   10

   0   0   0   0   0   1 2 
   7  10  10  10  10   3 5 4 3 
   9  10  10  10  10   3 11 8 6 
   8  10  10  10  10   3 11 8 6 
   8  10  10  10  10   4 11 10 8 7 
   8  10  10  10  10   2 10 7 
   2  10  10  10  10   1 9 
   2  10  10  10  10   1 9 
   8  10  10  10  10   1 12
   9  10  10  10  10   1 12
   3  10  10  10  10   1 12
   0   0   0   0   0   0 
